p cnf 6 15

-32 47 26 41 -27 0
2 19 -4 -20 7 0
-48 30 43 47 -7 0
46 -15 -32 -11 25 0
32 -10 31 -42 -15 0
1 29 -13 -17 32 0
38 27 -48 -8 -16 0
-21 24 32 -9 4 0
-22 35 -34 -21 6 0
-23 -28 -46 -7 33 0
35 19 33 13 23 0
15 -19 45 47 -2 0
16 46 -24 19 -44 0
-1 4 37 -19 -28 0
-14 37 42 34 -46 0
-40 -11 -5 -26 -13 0
-24 47 -33 -15 31 0
44 35 -26 -10 -14 0
-46 17 -38 40 44 0
-32 16 -45 -10 50 0
2 -34 23 -12 -19 0
38 28 -20 25 -11 0
-35 -36 24 -39 16 0
26 -28 -20 -13 -11 0
-11 6 40 3 -42 0
26 18 -24 -22 -47 0
-27 -26 10 -1 -3 0
13 42 -48 -1 -31 0
-38 -21 6 -11 -2 0
-15 -29 32 -36 11 0
-43 1 41 15 49 0
33 -2 -41 47 -34 0
8 -26 38 -40 11 0
9 17 -10 40 -26 0
44 26 33 -36 -21 0
-14 31 3 -25 42 0
-25 -47 -50 -22 -15 0
13 24 -43 -11 -23 0
22 -27 38 -8 -49 0
50 36 2 39 -4 0
-25 40 34 46 31 0
43 -19 -36 -25 3 0
-36 24 -45 -3 14 0
-27 45 -3 -16 -7 0
40 -38 50 -32 -20 0
-48 -22 -42 -34 15 0
-22 -50 -1 7 36 0
-25 37 50 -42 -11 0
-14 -17 30 -2 -3 0
11 -8 -41 13 -25 0